c Maximum weighted clique instances generated from exactcolors.
c cutoff: 17179869.
c A clique of value > scalef (17179869) defines an improving stable sets for coloring.
p edge 36 0
n 1 17179869
n 2 17179869
n 3 17179869
n 4 17179869
n 5 17179869
n 6 17179869
n 7 17179869
n 8 17179869
n 9 17179869
n 10 17179869
n 11 17179869
n 12 17179869
n 13 17179869
n 14 17179869
n 15 17179869
n 16 17179869
n 17 17179869
n 18 17179869
n 19 17179869
n 20 17179869
n 21 17179869
n 22 17179869
n 23 17179869
n 24 17179869
n 25 17179869
n 26 17179869
n 27 17179869
n 28 17179869
n 29 17179869
n 30 17179869
n 31 17179869
n 32 17179869
n 33 17179869
n 34 17179869
n 35 17179869
n 36 17179869
